peakDumbCharging = 14800; 
Machine = anon_enum(16); 
machineSpeed = [3700,3700,3700,3700,3700,3700,3700,3700,3700,3700,3700,3700,3700,3700,3700,3700]; 
machineLoad = [3700,3700,3700,3700,3700,3700,3700,3700,3700,3700,3700,3700,3700,3700,3700,3700]; 
Car = anon_enum(21); 
demandCar = [6040,3200,3680,2000,9960,9320,4640,10680,7040,6800,11320,8880,1120,13680,13760,8920,13400,2880,33520,9920,13320]; 
arrivalCar = [74,70,67,65,64,63,63,61,59,59,56,54,53,49,47,44,44,38,37,35,26]; 
departureCar = [77,72,69,67,68,67,65,66,62,62,68,59,54,59,54,48,49,41,59,39,44]; 
